Route #1: 43 23 50 22 38 9 12 5 40
Route #2: 18 10 8 17 14 51 44 28 46
Route #3: 45 41 29 37 15 7 19
Route #4: 53 6 24 42 4 39 26 21 47
Route #5: 25 1 52 16 35 27
Route #6: 48 32 36 3
Route #7: 13 49 33 11 55 20 31 34 30 54 2
Cost 711
Time 0.085236
